/*********************************************
 * OPL 12.6.0.0 Data
 * Author: Adrian Rodriguez Bazaga, Pau Rodriguez Esmerats
 * Creation Date: 06/12/2017 at 23:02:55
 *********************************************/

nNurses=120;
maxConsec=2;
maxPresence=7;
maxHours=5;
minHours=1;
hours=24;
demand= [28 26 30 36 26 30 36 26 20 9 2 2 2 2 3 2 1 1 1 0 20 31 12 31  ];
